  comment line                          
   13.6650000000000     
     1.0033250607178821    0.0093640212316818    0.0085815876844828
     0.0094612167056582    0.9995120013429335    0.0016707116017004
     0.0086750704627235    0.0016963103339419    1.0340745128419704
   Pd   Ni   P 
    80    80    40
Direct
  0.4160306151812279  0.3542100788763065  0.4007173112052484
  0.5819997199406117  0.7085916613776817  0.6957032237341494
  0.1188774052057795  0.9905106949704674  0.8533776960996065
  0.3915759457867125  0.3061505566265552  0.9375688997210290
  0.6521150874199435  0.7875744054894227  0.9184697411121618
  0.5791378058124579  0.6285763623398068  0.5065851572387174
  0.2452295600002898  0.4743190400531745  0.6454986839065597
  0.7072386820149958  0.7105172315541424  0.3625590600147177
  0.7765112956724849  0.4385812410840444  0.1304169304828093
  0.2437080066394870  0.1509102297056728  0.9118958386382090
  0.0147439055928302  0.3272571131807709  0.9626892862712566
  0.4480651108022400  0.3548139961678842  0.5975912677204676
  0.4627477355177376  0.5199412798877532  0.9599834780918499
  0.4316354213284939  0.8211614715499636  0.1464009563397539
  0.3923699251738029  0.6245480841638908  0.1187846575071418
  0.0831487772784598  0.2072631984675724  0.7981113791887608
  0.9889458007666789  0.5376636846080771  0.8887815610181349
  0.6463540402882444  0.3835672205309706  0.2963680010571537
  0.6975105408463662  0.0754818443016987  0.6885562494715671
  0.5862650107815455  0.0478114430828356  0.8547634476023660
  0.0580752398518527  0.7894736501517770  0.4633263787996142
  0.4266485479664368  0.1707346588886409  0.4792621520237361
  0.1243602925718506  0.5770722668770247  0.4983549822729927
  0.4680898278366996  0.3550917676591041  0.2062576403113781
  0.7527914753918736  0.6197276906247993  0.0169968164101917
  0.8795172403877913  0.0647500514845021  0.0349269134923063
  0.2758276617477264  0.6582366769798469  0.9582691446672271
  0.4003103492896329  0.0286032976287629  0.1777783187234618
  0.6357182455879311  0.4010340170580804  0.9470079314845563
  0.1880383023443528  0.0530470745634091  0.2375500466512932
  0.9273474255729184  0.3784784987697307  0.7788165175437101
  0.3995068204326913  0.6753437633792174  0.6002252909452963
  0.6661183487798752  0.0935257411739414  0.4904449624593070
  0.5972630262019436  0.9653086869317136  0.1563869520753300
  0.6435667793959325  0.7692857637253141  0.1147234192551210
  0.3478052139293126  0.1900173017068596  0.2973470111727039
  0.3052127481499198  0.8425489457552118  0.8342437414785309
  0.3024923816393112  0.4743109247060886  0.8583687414766317
  0.3211330484831549  0.9993519566508695  0.3737076672635524
  0.8438196367930999  0.2679755308831773  0.2080064665856796
  0.3360263701741815  0.2340203599503354  0.1115837388030627
  0.9177354044154100  0.6585460864207704  0.3925861658654668
  0.4392925270827917  0.1724246057946317  0.8023134342132607
  0.8318207665745021  0.8316037703460424  0.0412310511989205
  0.9765766627210652  0.4837195758339092  0.0815478344557832
  0.8458963900725038  0.4369758336267182  0.6079886526561111
  0.1726453367357976  0.1394868080469465  0.6333514723677212
  0.6321543249333885  0.2498627732542502  0.7942134290235145
  0.1228857680386923  0.4079162537211261  0.8047208337302720
  0.7244499448613837  0.4402763835440240  0.7702968214512609
  0.0942523544880203  0.3075026696976337  0.4919600018635109
  0.1847741498809938  0.5256957796649786  0.1922615301405557
  0.5799236616422334  0.5084512730064645  0.1179778264563680
  0.8493259292622497  0.7405498274466140  0.2199965262645875
  0.2962186902790833  0.0374058559117714  0.7559492249888109
  0.2153342234228504  0.7279780862330441  0.1525568654186245
  0.4954041625876897  0.9211052497678907  0.9931544067970677
  0.6258292169321962  0.5939445099941949  0.8574336189377192
  0.5437820545691352  0.1882445479148203  0.6329032455618702
  0.7203062752222991  0.7645830941549150  0.5475330638916347
  0.1456596828735783  0.1866577211480518  0.0804563456563443
  0.9906400549906138  0.1195886840876028  0.2095184181611671
  0.4850743086183371  0.3950464004096830  0.7891691001908114
  0.3231180395220790  0.0216491924466169  0.5644139158769406
  0.2865831910713084  0.2902723293148384  0.7530538211700843
  0.1983400576058472  0.8555934172349211  0.3274566683967279
  0.0415722142470187  0.4491876457363588  0.6222623894924268
  0.5358233242495629  0.6647008645225014  0.2445068551479395
  0.8304732790316933  0.4411011222332277  0.9454676907641613
  0.1237798676110557  0.7881943312158910  0.7953411111189084
  0.0782615037910759  0.9841763757558510  0.0577134410164817
  0.9220311445512053  0.9293365095207875  0.1967336825125088
  0.8953144407006164  0.0939386378918527  0.3997324592126859
  0.4926715680772631  0.0026449009556160  0.6682777657192531
  0.5087105899528552  0.8657027828833748  0.8057467316088847
  0.3509121226626419  0.7365776866227165  0.3018499480095898
  0.2654389480301163  0.6504932669353209  0.7480496220344008
  0.0478573694909841  0.3273955765312806  0.1741401422353874
  0.9521455845705376  0.6510487155431903  0.5905129714891970
  0.1444856787348527  0.9722746880260615  0.4944587080054248
  0.1829968552615995  0.9166670043783824  0.6755406433869169
  0.0390290405364695  0.7969522394725033  0.1008950744482675
  0.5281342024532663  0.8268871919462626  0.5644352850543797
  0.3964519602831800  0.5121850609532501  0.5096348363890186
  0.1553468940087726  0.5058019318701028  0.0032915999645482
  0.5687532746218409  0.5174005517715798  0.6749825628469210
  0.7395506165835215  0.3838676470515594  0.4660401605845621
  0.0280947084628949  0.1309018947054170  0.5175080891757204
  0.3724380895243300  0.8452778119983932  0.4699464100809791
  0.7093279089366860  0.6066460066917401  0.2072627073562074
  0.7776197897423671  0.5851427385125731  0.4917676522832863
  0.2050154310375945  0.3320266795090276  0.9571594896949449
  0.9555408365367271  0.4545291141993388  0.4486726402322034
  0.4956477617228146  0.9834980535109139  0.4742762907427576
  0.7639821538461646  0.6094869429111185  0.6685106066952216
  0.5300876531109182  0.1665861545579048  0.1499882505151788
  0.2962417706875016  0.9703260032319889  0.9641311351557817
  0.8595595875720008  0.1158479063024060  0.5841653157714077
  0.8178214874716616  0.6098309077737838  0.8365325218175101
  0.5703669349660245  0.4462476632189691  0.4724455805137779
  0.6460975431409963  0.8939270244198099  0.4204243962402359
  0.0752760271116202  0.6896713661303053  0.9470528618770970
  0.1541405161442242  0.7234777921604518  0.6155026756394122
  0.6858384856432451  0.8841965921462673  0.7221149725353868
  0.9490990556465349  0.4548001160381574  0.2690684416026698
  0.5146016680233672  0.7670698453277538  0.4032306285281066
  0.2421507436911270  0.4339223268580810  0.4671970801136425
  0.8898157517777463  0.2758474027658551  0.4989536933989598
  0.8632945845965310  0.9702042272705569  0.6997437773520971
  0.1724143493770285  0.8352485164250538  0.9774880673071422
  0.1518106523315197  0.6671993322306449  0.3297767760572299
  0.7920482082376736  0.5095906471093912  0.3341104671402420
  0.0330352757476859  0.1306659414151952  0.9536245046638783
  0.0331524646295449  0.0246283387857460  0.6753021995575992
  0.9849577378178509  0.2606300120057696  0.3459256637793828
  0.7436951242600074  0.1373315002620998  0.9082638965303786
  0.0342009416043396  0.9650090677564052  0.3438282809968314
  0.8059682866196241  0.2498274327444250  0.6999432048834677
  0.4200544606181111  0.1071891455647318  0.9880348715106351
  0.0145615889334891  0.8375597595221222  0.6426603271790796
  0.2566908490242383  0.7044388163597972  0.4680800600743922
  0.9004012463041846  0.2090696216148515  0.8638948180486636
  0.6278848262097583  0.0567318841747166  0.3129294601847334
  0.5417962012528363  0.2182170891307251  0.3238070326837601
  0.9320108431893885  0.6617344715223794  0.0680538584572830
  0.5952542755457486  0.2723173801442016  0.4736745295336888
  0.2765187205526871  0.3690046329995909  0.2513439006897968
  0.7836551101709759  0.9446196604177857  0.5376505974417398
  0.3624566210742444  0.8567938198474252  0.6520324206516790
  0.9588352511953957  0.9585884963991305  0.5256150663643098
  0.4787533106041835  0.9131031420836351  0.3084161642198922
  0.2931818247982960  0.5546609510481701  0.3555679577840678
  0.9549616775912781  0.7181693905629913  0.7873441983520877
  0.3388292448975250  0.4381177626124924  0.0787824932114205
  0.0233697351803954  0.7902086441942302  0.2830672726886405
  0.9871486124349147  0.2546520907855410  0.6416916332237861
  0.6432838098480858  0.3061700947513160  0.1165887659757203
  0.6490310708864726  0.3469831076225489  0.6263448108591803
  0.7047919068639388  0.1282373290086412  0.0922413526531116
  0.7022855717623457  0.9687809849478555  0.9819964898385791
  0.9905725017428679  0.8563266372229279  0.9329918312176986
  0.0112972091916390  0.6239931184342709  0.2224992195149440
  0.8073635187542578  0.2653615006812657  0.0211830938494302
  0.4761306304831052  0.5199721754109063  0.3401392622481367
  0.0799025459235523  0.6008071101610213  0.7267098522617488
  0.4459564941082093  0.5931565572916924  0.7906652498125979
  0.7399785762693867  0.8920655684296221  0.2605683114336657
  0.9160094715349913  0.0265437213288777  0.8573516835939614
  0.8756166413468662  0.8644682457863695  0.3828276409022706
  0.8415496660855055  0.7913628677777993  0.6782500253863972
  0.2771081247354914  0.2819797597270579  0.5619320459984252
  0.8260474632006094  0.8482925801099412  0.8460848893441621
  0.7941123074498648  0.0780471322849294  0.2421083429801882
  0.1185653909669284  0.4092817024577116  0.3372267739407420
  0.5671338108319759  0.2225287403340204  0.9720429405363689
  0.1554248691713127  0.2336103986303115  0.2936202538650932
  0.2133653639428772  0.1476801426983272  0.4466683071225006
  0.7512187891474085  0.2268083866838779  0.3709279451704077
  0.4554013802621100  0.7276450862658166  0.9487945801330184
  0.2506641328690407  0.9125696450259611  0.1272405822383860
  0.5994979996709020  0.8190413215267043  0.2737376070902187
  0.8968002404622339  0.7138361726547942  0.9308939114950405
  0.0757596007658208  0.1169973083791334  0.3685031707011603
  0.1009919072941372  0.9031926648725630  0.2030616168355550
  0.8612088605032540  0.5697934594291780  0.1876210856810800
  0.7408393958701183  0.2358447465122353  0.5509158378435899
  0.3672374445979045  0.5017742224334398  0.2253399156568889
  0.7709651021610924  0.9704907790802650  0.1242993700862769
  0.3263797710073177  0.8121026382448875  0.0189486792859839
  0.6361791585623280  0.5493621837394826  0.3497980595409445
  0.7558033520846266  0.9956430579667668  0.8279515122353374
  0.6732654881364866  0.2001926261845384  0.2328038814615567
  0.2367995188364063  0.8408435189539745  0.5511441921291791
  0.9254255703050802  0.1347556760584681  0.7274613336834506
  0.7258031219147654  0.7301856037981409  0.7747679675244967
  0.5792759909874405  0.6448453700405210  0.0124299476865133
  0.9872766362809742  0.8980979218542373  0.7822257570556985
  0.5737424302746987  0.0734342513739392  0.0246190140470262
  0.6853237548479356  0.4960936828103328  0.5762838864402724
  0.2739900880942088  0.0752893046151399  0.0778040162191402
  0.4156109404221482  0.0047834040107730  0.8604744178695682
  0.0939346609977392  0.6317994610145092  0.0884246531808301
  0.4701020981836876  0.0739815528998236  0.3401500614551125
  0.7699163385822203  0.3039715218279824  0.8669638295119597
  0.9202840327392394  0.5475694177587371  0.7235823443941598
  0.3681866326922929  0.1691878199404329  0.6450460426345117
  0.1991396831599559  0.3630521776027678  0.1062962870497799
  0.1411429005480542  0.3111971377618374  0.6610003648064833
  0.7675412347872523  0.9918430399167377  0.3801364278292567
  0.0490918587268041  0.5501989651958894  0.3573842649052210
  0.8565379314155592  0.3578766888838132  0.3609965158938593
  0.4069823193407984  0.4997606478918755  0.6719611727720576
  0.8922081695199395  0.8079929843963072  0.5287420774280349
  0.9544726357023876  0.2156213993389002  0.0726251968755705
  0.1604325842468413  0.5726416829381407  0.8570366706649395
  0.5015843042962231  0.3620067803098905  0.0441722578647017
  0.2522248110650480  0.2962250288101060  0.3985438500249003
  0.4070243884778009  0.6489779499799795  0.4300717739253130
  0.6270628301592964  0.9443361933412220  0.5813201685479115
  0.4161603622702209  0.7424421974273618  0.7526781732757047
 
  0.00000000E+00  0.00000000E+00  0.00000000E+00
  0.00000000E+00  0.00000000E+00  0.00000000E+00
  0.00000000E+00  0.00000000E+00  0.00000000E+00
  0.00000000E+00  0.00000000E+00  0.00000000E+00
  0.00000000E+00  0.00000000E+00  0.00000000E+00
  0.00000000E+00  0.00000000E+00  0.00000000E+00
  0.00000000E+00  0.00000000E+00  0.00000000E+00
  0.00000000E+00  0.00000000E+00  0.00000000E+00
  0.00000000E+00  0.00000000E+00  0.00000000E+00
  0.00000000E+00  0.00000000E+00  0.00000000E+00
  0.00000000E+00  0.00000000E+00  0.00000000E+00
  0.00000000E+00  0.00000000E+00  0.00000000E+00
  0.00000000E+00  0.00000000E+00  0.00000000E+00
  0.00000000E+00  0.00000000E+00  0.00000000E+00
  0.00000000E+00  0.00000000E+00  0.00000000E+00
  0.00000000E+00  0.00000000E+00  0.00000000E+00
  0.00000000E+00  0.00000000E+00  0.00000000E+00
  0.00000000E+00  0.00000000E+00  0.00000000E+00
  0.00000000E+00  0.00000000E+00  0.00000000E+00
  0.00000000E+00  0.00000000E+00  0.00000000E+00
  0.00000000E+00  0.00000000E+00  0.00000000E+00
  0.00000000E+00  0.00000000E+00  0.00000000E+00
  0.00000000E+00  0.00000000E+00  0.00000000E+00
  0.00000000E+00  0.00000000E+00  0.00000000E+00
  0.00000000E+00  0.00000000E+00  0.00000000E+00
  0.00000000E+00  0.00000000E+00  0.00000000E+00
  0.00000000E+00  0.00000000E+00  0.00000000E+00
  0.00000000E+00  0.00000000E+00  0.00000000E+00
  0.00000000E+00  0.00000000E+00  0.00000000E+00
  0.00000000E+00  0.00000000E+00  0.00000000E+00
  0.00000000E+00  0.00000000E+00  0.00000000E+00
  0.00000000E+00  0.00000000E+00  0.00000000E+00
  0.00000000E+00  0.00000000E+00  0.00000000E+00
  0.00000000E+00  0.00000000E+00  0.00000000E+00
  0.00000000E+00  0.00000000E+00  0.00000000E+00
  0.00000000E+00  0.00000000E+00  0.00000000E+00
  0.00000000E+00  0.00000000E+00  0.00000000E+00
  0.00000000E+00  0.00000000E+00  0.00000000E+00
  0.00000000E+00  0.00000000E+00  0.00000000E+00
  0.00000000E+00  0.00000000E+00  0.00000000E+00
  0.00000000E+00  0.00000000E+00  0.00000000E+00
  0.00000000E+00  0.00000000E+00  0.00000000E+00
  0.00000000E+00  0.00000000E+00  0.00000000E+00
  0.00000000E+00  0.00000000E+00  0.00000000E+00
  0.00000000E+00  0.00000000E+00  0.00000000E+00
  0.00000000E+00  0.00000000E+00  0.00000000E+00
  0.00000000E+00  0.00000000E+00  0.00000000E+00
  0.00000000E+00  0.00000000E+00  0.00000000E+00
  0.00000000E+00  0.00000000E+00  0.00000000E+00
  0.00000000E+00  0.00000000E+00  0.00000000E+00
  0.00000000E+00  0.00000000E+00  0.00000000E+00
  0.00000000E+00  0.00000000E+00  0.00000000E+00
  0.00000000E+00  0.00000000E+00  0.00000000E+00
  0.00000000E+00  0.00000000E+00  0.00000000E+00
  0.00000000E+00  0.00000000E+00  0.00000000E+00
  0.00000000E+00  0.00000000E+00  0.00000000E+00
  0.00000000E+00  0.00000000E+00  0.00000000E+00
  0.00000000E+00  0.00000000E+00  0.00000000E+00
  0.00000000E+00  0.00000000E+00  0.00000000E+00
  0.00000000E+00  0.00000000E+00  0.00000000E+00
  0.00000000E+00  0.00000000E+00  0.00000000E+00
  0.00000000E+00  0.00000000E+00  0.00000000E+00
  0.00000000E+00  0.00000000E+00  0.00000000E+00
  0.00000000E+00  0.00000000E+00  0.00000000E+00
  0.00000000E+00  0.00000000E+00  0.00000000E+00
  0.00000000E+00  0.00000000E+00  0.00000000E+00
  0.00000000E+00  0.00000000E+00  0.00000000E+00
  0.00000000E+00  0.00000000E+00  0.00000000E+00
  0.00000000E+00  0.00000000E+00  0.00000000E+00
  0.00000000E+00  0.00000000E+00  0.00000000E+00
  0.00000000E+00  0.00000000E+00  0.00000000E+00
  0.00000000E+00  0.00000000E+00  0.00000000E+00
  0.00000000E+00  0.00000000E+00  0.00000000E+00
  0.00000000E+00  0.00000000E+00  0.00000000E+00
  0.00000000E+00  0.00000000E+00  0.00000000E+00
  0.00000000E+00  0.00000000E+00  0.00000000E+00
  0.00000000E+00  0.00000000E+00  0.00000000E+00
  0.00000000E+00  0.00000000E+00  0.00000000E+00
  0.00000000E+00  0.00000000E+00  0.00000000E+00
  0.00000000E+00  0.00000000E+00  0.00000000E+00
  0.00000000E+00  0.00000000E+00  0.00000000E+00
  0.00000000E+00  0.00000000E+00  0.00000000E+00
  0.00000000E+00  0.00000000E+00  0.00000000E+00
  0.00000000E+00  0.00000000E+00  0.00000000E+00
  0.00000000E+00  0.00000000E+00  0.00000000E+00
  0.00000000E+00  0.00000000E+00  0.00000000E+00
  0.00000000E+00  0.00000000E+00  0.00000000E+00
  0.00000000E+00  0.00000000E+00  0.00000000E+00
  0.00000000E+00  0.00000000E+00  0.00000000E+00
  0.00000000E+00  0.00000000E+00  0.00000000E+00
  0.00000000E+00  0.00000000E+00  0.00000000E+00
  0.00000000E+00  0.00000000E+00  0.00000000E+00
  0.00000000E+00  0.00000000E+00  0.00000000E+00
  0.00000000E+00  0.00000000E+00  0.00000000E+00
  0.00000000E+00  0.00000000E+00  0.00000000E+00
  0.00000000E+00  0.00000000E+00  0.00000000E+00
  0.00000000E+00  0.00000000E+00  0.00000000E+00
  0.00000000E+00  0.00000000E+00  0.00000000E+00
  0.00000000E+00  0.00000000E+00  0.00000000E+00
  0.00000000E+00  0.00000000E+00  0.00000000E+00
  0.00000000E+00  0.00000000E+00  0.00000000E+00
  0.00000000E+00  0.00000000E+00  0.00000000E+00
  0.00000000E+00  0.00000000E+00  0.00000000E+00
  0.00000000E+00  0.00000000E+00  0.00000000E+00
  0.00000000E+00  0.00000000E+00  0.00000000E+00
  0.00000000E+00  0.00000000E+00  0.00000000E+00
  0.00000000E+00  0.00000000E+00  0.00000000E+00
  0.00000000E+00  0.00000000E+00  0.00000000E+00
  0.00000000E+00  0.00000000E+00  0.00000000E+00
  0.00000000E+00  0.00000000E+00  0.00000000E+00
  0.00000000E+00  0.00000000E+00  0.00000000E+00
  0.00000000E+00  0.00000000E+00  0.00000000E+00
  0.00000000E+00  0.00000000E+00  0.00000000E+00
  0.00000000E+00  0.00000000E+00  0.00000000E+00
  0.00000000E+00  0.00000000E+00  0.00000000E+00
  0.00000000E+00  0.00000000E+00  0.00000000E+00
  0.00000000E+00  0.00000000E+00  0.00000000E+00
  0.00000000E+00  0.00000000E+00  0.00000000E+00
  0.00000000E+00  0.00000000E+00  0.00000000E+00
  0.00000000E+00  0.00000000E+00  0.00000000E+00
  0.00000000E+00  0.00000000E+00  0.00000000E+00
  0.00000000E+00  0.00000000E+00  0.00000000E+00
  0.00000000E+00  0.00000000E+00  0.00000000E+00
  0.00000000E+00  0.00000000E+00  0.00000000E+00
  0.00000000E+00  0.00000000E+00  0.00000000E+00
  0.00000000E+00  0.00000000E+00  0.00000000E+00
  0.00000000E+00  0.00000000E+00  0.00000000E+00
  0.00000000E+00  0.00000000E+00  0.00000000E+00
  0.00000000E+00  0.00000000E+00  0.00000000E+00
  0.00000000E+00  0.00000000E+00  0.00000000E+00
  0.00000000E+00  0.00000000E+00  0.00000000E+00
  0.00000000E+00  0.00000000E+00  0.00000000E+00
  0.00000000E+00  0.00000000E+00  0.00000000E+00
  0.00000000E+00  0.00000000E+00  0.00000000E+00
  0.00000000E+00  0.00000000E+00  0.00000000E+00
  0.00000000E+00  0.00000000E+00  0.00000000E+00
  0.00000000E+00  0.00000000E+00  0.00000000E+00
  0.00000000E+00  0.00000000E+00  0.00000000E+00
  0.00000000E+00  0.00000000E+00  0.00000000E+00
  0.00000000E+00  0.00000000E+00  0.00000000E+00
  0.00000000E+00  0.00000000E+00  0.00000000E+00
  0.00000000E+00  0.00000000E+00  0.00000000E+00
  0.00000000E+00  0.00000000E+00  0.00000000E+00
  0.00000000E+00  0.00000000E+00  0.00000000E+00
  0.00000000E+00  0.00000000E+00  0.00000000E+00
  0.00000000E+00  0.00000000E+00  0.00000000E+00
  0.00000000E+00  0.00000000E+00  0.00000000E+00
  0.00000000E+00  0.00000000E+00  0.00000000E+00
  0.00000000E+00  0.00000000E+00  0.00000000E+00
  0.00000000E+00  0.00000000E+00  0.00000000E+00
  0.00000000E+00  0.00000000E+00  0.00000000E+00
  0.00000000E+00  0.00000000E+00  0.00000000E+00
  0.00000000E+00  0.00000000E+00  0.00000000E+00
  0.00000000E+00  0.00000000E+00  0.00000000E+00
  0.00000000E+00  0.00000000E+00  0.00000000E+00
  0.00000000E+00  0.00000000E+00  0.00000000E+00
  0.00000000E+00  0.00000000E+00  0.00000000E+00
  0.00000000E+00  0.00000000E+00  0.00000000E+00
  0.00000000E+00  0.00000000E+00  0.00000000E+00
  0.00000000E+00  0.00000000E+00  0.00000000E+00
  0.00000000E+00  0.00000000E+00  0.00000000E+00
  0.00000000E+00  0.00000000E+00  0.00000000E+00
  0.00000000E+00  0.00000000E+00  0.00000000E+00
  0.00000000E+00  0.00000000E+00  0.00000000E+00
  0.00000000E+00  0.00000000E+00  0.00000000E+00
  0.00000000E+00  0.00000000E+00  0.00000000E+00
  0.00000000E+00  0.00000000E+00  0.00000000E+00
  0.00000000E+00  0.00000000E+00  0.00000000E+00
  0.00000000E+00  0.00000000E+00  0.00000000E+00
  0.00000000E+00  0.00000000E+00  0.00000000E+00
  0.00000000E+00  0.00000000E+00  0.00000000E+00
  0.00000000E+00  0.00000000E+00  0.00000000E+00
  0.00000000E+00  0.00000000E+00  0.00000000E+00
  0.00000000E+00  0.00000000E+00  0.00000000E+00
  0.00000000E+00  0.00000000E+00  0.00000000E+00
  0.00000000E+00  0.00000000E+00  0.00000000E+00
  0.00000000E+00  0.00000000E+00  0.00000000E+00
  0.00000000E+00  0.00000000E+00  0.00000000E+00
  0.00000000E+00  0.00000000E+00  0.00000000E+00
  0.00000000E+00  0.00000000E+00  0.00000000E+00
  0.00000000E+00  0.00000000E+00  0.00000000E+00
  0.00000000E+00  0.00000000E+00  0.00000000E+00
  0.00000000E+00  0.00000000E+00  0.00000000E+00
  0.00000000E+00  0.00000000E+00  0.00000000E+00
  0.00000000E+00  0.00000000E+00  0.00000000E+00
  0.00000000E+00  0.00000000E+00  0.00000000E+00
  0.00000000E+00  0.00000000E+00  0.00000000E+00
  0.00000000E+00  0.00000000E+00  0.00000000E+00
  0.00000000E+00  0.00000000E+00  0.00000000E+00
  0.00000000E+00  0.00000000E+00  0.00000000E+00
  0.00000000E+00  0.00000000E+00  0.00000000E+00
  0.00000000E+00  0.00000000E+00  0.00000000E+00
  0.00000000E+00  0.00000000E+00  0.00000000E+00
  0.00000000E+00  0.00000000E+00  0.00000000E+00
  0.00000000E+00  0.00000000E+00  0.00000000E+00
  0.00000000E+00  0.00000000E+00  0.00000000E+00
  0.00000000E+00  0.00000000E+00  0.00000000E+00
  0.00000000E+00  0.00000000E+00  0.00000000E+00
  0.00000000E+00  0.00000000E+00  0.00000000E+00
  0.00000000E+00  0.00000000E+00  0.00000000E+00
